33D32945 STP File, STP Format Version 1.0

SECTION Comment
Name "wrp3-25-5s"
Creator "Bernd Zey"
Problem "Stochastic Steiner Tree Problem"
# Stochastic Steiner tree problem instance, base file: wrp3-25.stp
# weight-scaling on, factor=0.010000 (for "big-M" edges)
# parameters:
# distribution=equal
# selectRootRandomly=0
# probabilityTerminal=33
# probabilityNonTerminal=5
# 2nd stage edge-costs in [1.1000c_e, 1.3000c_e]
END

SECTION Graph
Nodes 246
Edges 468
Scenarios 5
Root 242
E 1 12 5
E 1 217 1
E 1 218 1
E 2 4 1
E 2 221 1
E 3 5 1
E 3 217 1
E 3 218 1
E 3 220 11
E 4 6 1
E 4 220 1
E 5 197 43
E 5 216 1
E 5 219 11
E 6 219 1
E 7 15 5
E 7 195 1
E 8 16 5
E 8 195 1
E 8 197 1
E 8 216 43
E 9 10 1
E 9 196 11
E 10 197 11
E 10 219 43
E 11 17 1
E 11 209 5
E 11 212 1
E 12 214 1
E 12 215 1
E 13 14 1
E 13 188 1
E 13 189 1
E 13 192 11
E 14 190 1
E 14 193 11
E 14 210 43
E 15 191 1
E 15 194 1
E 16 193 1
E 16 194 1
E 16 213 43
E 17 19 1
E 17 208 5
E 17 211 1
E 18 20 1
E 18 211 11
E 18 214 1
E 18 215 1
E 19 190 43
E 19 207 5
E 19 210 1
E 20 193 43
E 20 210 11
E 20 213 1
E 21 22 2
E 21 27 1
E 21 175 1
E 21 184 9
E 22 28 1
E 22 177 2
E 22 185 9
E 23 185 6
E 23 186 2
E 24 175 9
E 24 184 1
E 25 177 9
E 25 185 2
E 25 186 6
E 25 204 48
E 26 162 2
E 26 165 6
E 27 28 2
E 27 163 9
E 27 172 1
E 28 165 9
E 28 176 2
E 29 163 1
E 29 172 9
E 30 162 6
E 30 165 2
E 30 170 3
E 30 176 9
E 31 42 5
E 31 160 1
E 31 161 1
E 32 34 1
E 32 168 1
E 32 173 2
E 33 35 1
E 33 160 1
E 33 161 1
E 33 167 11
E 34 36 1
E 34 167 1
E 34 171 2
E 35 153 18
E 35 159 1
E 35 166 11
E 36 141 43
E 36 166 1
E 36 169 2
E 37 45 5
E 37 120 1
E 37 121 1
E 38 46 5
E 38 120 1
E 38 125 1
E 38 148 23
E 39 40 1
E 39 122 11
E 39 137 1
E 39 140 1
E 40 125 11
E 40 141 1
E 40 154 23
E 41 47 1
E 41 157 12
E 42 157 1
E 42 158 1
E 43 44 1
E 43 110 11
E 44 112 11
E 44 132 23
E 45 113 1
E 46 112 1
E 46 113 1
E 46 144 23
E 47 48 12
E 47 49 1
E 48 50 1
E 48 157 1
E 48 158 1
E 49 50 12
E 49 127 23
E 49 133 18
E 49 138 14
E 50 145 18
E 50 156 1
E 51 105 7
E 51 106 1
E 51 115 6
E 52 115 5
E 52 119 1
E 52 124 1
E 52 131 6
E 53 115 1
E 53 119 5
E 54 106 6
E 54 115 1
E 54 117 1
E 54 124 5
E 55 101 1
E 55 104 5
E 56 104 6
E 56 105 1
E 56 106 7
E 56 111 11
E 57 104 1
E 57 105 6
E 58 101 5
E 58 104 1
E 58 107 13
E 58 108 13
E 59 60 2
E 59 67 1
E 59 97 1
E 59 100 9
E 60 68 1
E 60 99 1
E 60 102 9
E 61 62 2
E 61 100 6
E 61 103 1
E 61 114 17
E 62 102 6
E 62 107 11
E 63 97 9
E 63 100 1
E 63 103 6
E 64 99 9
E 64 102 1
E 64 109 17
E 65 66 2
E 65 73 5
E 65 92 1
E 65 94 6
E 66 74 5
E 66 93 1
E 66 95 6
E 67 68 2
E 67 94 9
E 67 96 1
E 68 95 9
E 68 98 1
E 69 92 6
E 69 94 1
E 69 96 9
E 70 93 6
E 70 95 1
E 70 98 9
E 71 72 2
E 71 77 1
E 71 85 1
E 71 88 9
E 72 78 1
E 72 87 1
E 72 89 9
E 73 74 2
E 73 88 6
E 73 90 1
E 74 89 6
E 74 91 1
E 75 85 9
E 75 88 1
E 75 90 6
E 76 87 9
E 76 89 1
E 76 91 6
E 77 78 2
E 77 82 9
E 77 84 1
E 78 83 9
E 78 86 1
E 79 82 1
E 79 84 9
E 80 83 1
E 80 86 9
E 81 173 179
E 82 83 2
E 84 85 1
E 86 87 1
E 88 89 2
E 90 92 5
E 91 93 5
E 94 95 2
E 96 97 1
E 98 99 1
E 100 102 2
E 101 103 16
E 103 111 17
E 106 108 1
E 107 109 1
E 107 116 6
E 108 117 6
E 108 123 10
E 109 118 6
E 110 112 1
E 110 113 1
E 111 114 1
E 111 123 7
E 112 142 23
E 113 120 5
E 114 116 2
E 114 126 7
E 116 118 1
E 116 128 7
E 117 127 5
E 117 136 13
E 118 129 7
E 119 130 6
E 120 122 1
E 121 122 1
E 121 137 11
E 122 125 1
E 123 126 1
E 124 127 1
E 124 133 6
E 125 150 23
E 126 128 2
E 128 129 1
E 128 136 6
E 129 138 6
E 130 131 1
E 130 132 1
E 131 133 1
E 131 134 1
E 132 134 1
E 132 142 11
E 133 135 1
E 134 135 1
E 134 143 11
E 135 145 11
E 136 138 1
E 137 139 1
E 139 140 1
E 139 164 41
E 140 141 1
E 140 179 56
E 141 174 47
E 142 143 1
E 142 144 1
E 143 145 1
E 143 146 1
E 144 146 1
E 144 148 5
E 145 147 1
E 146 147 1
E 146 149 5
E 147 151 5
E 147 156 18
E 148 149 1
E 148 150 1
E 149 151 1
E 149 152 1
E 150 152 1
E 150 154 11
E 151 153 1
E 151 159 18
E 152 153 1
E 152 155 11
E 154 155 1
E 155 166 19
E 156 158 1
E 156 159 5
E 158 160 5
E 159 160 1
E 161 168 11
E 162 164 3
E 163 165 2
E 164 170 6
E 166 167 1
E 167 168 1
E 169 171 1
E 169 198 54
E 170 174 2
E 170 178 9
E 171 173 1
E 171 199 54
E 172 175 1
E 173 201 54
E 174 181 9
E 176 177 1
E 176 178 3
E 177 180 3
E 178 179 1
E 178 180 1
E 179 181 1
E 179 182 1
E 180 182 1
E 180 187 20
E 181 183 1
E 181 198 43
E 182 183 1
E 182 188 20
E 183 190 20
E 183 200 43
E 184 185 2
E 186 187 8
E 186 207 48
E 187 188 1
E 187 189 1
E 188 190 1
E 189 191 11
E 191 192 1
E 192 193 1
E 192 194 1
E 194 195 5
E 195 196 1
E 196 197 1
E 198 199 1
E 198 200 1
E 199 201 1
E 199 202 1
E 200 202 1
E 200 204 9
E 201 203 1
E 202 203 1
E 202 205 9
E 203 206 9
E 204 205 1
E 204 207 6
E 205 206 1
E 205 208 6
E 206 209 6
E 207 208 1
E 208 209 1
E 210 211 1
E 211 212 1
E 212 214 11
E 213 215 1
E 213 216 5
E 215 217 5
E 216 217 1
E 218 221 11
E 219 220 1
E 220 221 1
E 1 222 1000
E 2 222 1000
E 3 223 1000
E 4 223 1000
E 5 224 1000
E 6 224 1000
E 7 225 1000
E 8 225 1000
E 9 225 1000
E 10 225 1000
E 11 226 1000
E 12 226 1000
E 13 227 1000
E 14 227 1000
E 15 227 1000
E 16 227 1000
E 17 228 1000
E 18 228 1000
E 19 229 1000
E 20 229 1000
E 21 230 1000
E 22 230 1000
E 23 230 1000
E 24 230 1000
E 25 230 1000
E 26 231 1000
E 27 231 1000
E 28 231 1000
E 29 231 1000
E 30 231 1000
E 31 232 1000
E 32 232 1000
E 33 233 1000
E 34 233 1000
E 35 234 1000
E 36 234 1000
E 37 235 1000
E 38 235 1000
E 39 235 1000
E 40 235 1000
E 41 236 1000
E 42 236 1000
E 43 237 1000
E 44 237 1000
E 45 237 1000
E 46 237 1000
E 47 238 1000
E 48 238 1000
E 49 239 1000
E 50 239 1000
E 51 240 1000
E 52 240 1000
E 53 240 1000
E 54 240 1000
E 55 241 1000
E 56 241 1000
E 57 241 1000
E 58 241 1000
E 59 242 1000
E 60 242 1000
E 61 242 1000
E 62 242 1000
E 63 242 1000
E 64 242 1000
E 65 243 1000
E 66 243 1000
E 67 243 1000
E 68 243 1000
E 69 243 1000
E 70 243 1000
E 71 244 1000
E 72 244 1000
E 73 244 1000
E 74 244 1000
E 75 244 1000
E 76 244 1000
E 77 245 1000
E 78 245 1000
E 79 245 1000
E 80 245 1000
E 81 246 1000
END

SECTION StochasticProbabilities
SP 0.16280 0.23260 0.18610 0.23250 0.18600
END

SECTION StochasticWeights
SE 6 6 6 6 6 
SE 2 2 2 2 2 
SE 2 2 2 2 2 
SE 2 2 2 2 2 
SE 2 2 2 2 2 
SE 2 2 2 2 2 
SE 2 2 2 2 2 
SE 2 2 2 2 2 
SE 13 13 13 14 13 
SE 2 2 2 2 2 
SE 2 2 2 2 2 
SE 52 53 53 51 50 
SE 2 2 2 2 2 
SE 14 14 13 13 14 
SE 2 2 2 2 2 
SE 6 6 6 6 6 
SE 2 2 2 2 2 
SE 6 6 6 6 6 
SE 2 2 2 2 2 
SE 2 2 2 2 2 
SE 52 49 50 55 53 
SE 2 2 2 2 2 
SE 13 14 13 14 14 
SE 13 14 13 13 13 
SE 49 53 48 49 50 
SE 2 2 2 2 2 
SE 6 6 6 6 6 
SE 2 2 2 2 2 
SE 2 2 2 2 2 
SE 2 2 2 2 2 
SE 2 2 2 2 2 
SE 2 2 2 2 2 
SE 2 2 2 2 2 
SE 14 13 14 14 13 
SE 2 2 2 2 2 
SE 13 13 13 13 13 
SE 52 51 54 53 50 
SE 2 2 2 2 2 
SE 2 2 2 2 2 
SE 2 2 2 2 2 
SE 2 2 2 2 2 
SE 52 50 55 54 55 
SE 2 2 2 2 2 
SE 6 6 6 6 6 
SE 2 2 2 2 2 
SE 2 2 2 2 2 
SE 14 14 14 13 14 
SE 2 2 2 2 2 
SE 2 2 2 2 2 
SE 54 51 53 48 49 
SE 6 6 6 6 6 
SE 2 2 2 2 2 
SE 51 55 51 53 52 
SE 13 13 13 13 14 
SE 2 2 2 2 2 
SE 3 3 3 3 3 
SE 2 2 2 2 2 
SE 2 2 2 2 2 
SE 10 11 10 10 11 
SE 2 2 2 2 2 
SE 3 3 3 3 3 
SE 11 10 10 10 10 
SE 7 7 7 7 7 
SE 3 3 3 3 3 
SE 11 10 10 10 10 
SE 2 2 2 2 2 
SE 11 11 10 11 11 
SE 3 3 3 3 3 
SE 7 7 7 7 7 
SE 56 62 55 61 61 
SE 3 3 3 3 3 
SE 7 7 7 7 7 
SE 3 3 3 3 3 
SE 10 10 10 10 11 
SE 2 2 2 2 2 
SE 11 11 10 11 10 
SE 3 3 3 3 3 
SE 2 2 2 2 2 
SE 11 10 10 11 10 
SE 7 7 7 7 7 
SE 3 3 3 3 3 
SE 4 4 4 4 4 
SE 10 10 10 11 11 
SE 6 6 6 6 6 
SE 2 2 2 2 2 
SE 2 2 2 2 2 
SE 2 2 2 2 2 
SE 2 2 2 2 2 
SE 3 3 3 3 3 
SE 2 2 2 2 2 
SE 2 2 2 2 2 
SE 2 2 2 2 2 
SE 14 13 13 13 14 
SE 2 2 2 2 2 
SE 2 2 2 2 2 
SE 3 3 3 3 3 
SE 23 22 20 23 22 
SE 2 2 2 2 2 
SE 13 14 13 13 13 
SE 50 55 54 48 55 
SE 2 2 2 2 2 
SE 3 3 3 3 3 
SE 6 6 6 6 6 
SE 2 2 2 2 2 
SE 2 2 2 2 2 
SE 6 6 6 6 6 
SE 2 2 2 2 2 
SE 2 2 2 2 2 
SE 26 26 26 26 26 
SE 2 2 2 2 2 
SE 13 13 13 14 13 
SE 2 2 2 2 2 
SE 2 2 2 2 2 
SE 14 14 13 13 13 
SE 2 2 2 2 2 
SE 27 28 26 28 26 
SE 2 2 2 2 2 
SE 14 14 14 15 15 
SE 2 2 2 2 2 
SE 2 2 2 2 2 
SE 2 2 2 2 2 
SE 13 13 13 13 13 
SE 14 14 13 13 13 
SE 27 26 27 27 26 
SE 2 2 2 2 2 
SE 2 2 2 2 2 
SE 2 2 2 2 2 
SE 27 26 26 26 26 
SE 15 14 15 14 14 
SE 2 2 2 2 2 
SE 2 2 2 2 2 
SE 2 2 2 2 2 
SE 2 2 2 2 2 
SE 15 14 15 14 14 
SE 26 26 29 26 26 
SE 21 20 22 20 20 
SE 16 16 16 17 18 
SE 23 21 20 21 22 
SE 2 2 2 2 2 
SE 9 8 9 8 8 
SE 2 2 2 2 2 
SE 7 7 7 7 7 
SE 6 6 6 6 6 
SE 2 2 2 2 2 
SE 2 2 2 2 2 
SE 7 7 7 7 7 
SE 2 2 2 2 2 
SE 6 6 6 6 6 
SE 7 7 7 7 7 
SE 2 2 2 2 2 
SE 2 2 2 2 2 
SE 6 6 6 6 6 
SE 2 2 2 2 2 
SE 6 6 6 6 6 
SE 7 7 7 7 7 
SE 2 2 2 2 2 
SE 9 8 9 8 9 
SE 13 13 13 14 13 
SE 2 2 2 2 2 
SE 7 7 7 7 7 
SE 6 6 6 6 6 
SE 2 2 2 2 2 
SE 15 16 16 16 15 
SE 15 16 15 15 16 
SE 3 3 3 3 3 
SE 2 2 2 2 2 
SE 2 2 2 2 2 
SE 11 10 10 11 10 
SE 2 2 2 2 2 
SE 2 2 2 2 2 
SE 11 10 10 11 10 
SE 3 3 3 3 3 
SE 7 7 7 7 7 
SE 2 2 2 2 2 
SE 19 19 20 19 22 
SE 7 7 7 7 7 
SE 13 13 14 13 13 
SE 11 10 10 11 10 
SE 2 2 2 2 2 
SE 7 7 7 7 7 
SE 10 11 11 10 10 
SE 2 2 2 2 2 
SE 20 22 20 19 21 
SE 3 3 3 3 3 
SE 6 6 6 6 6 
SE 2 2 2 2 2 
SE 7 7 7 7 7 
SE 6 6 6 6 6 
SE 2 2 2 2 2 
SE 7 7 7 7 7 
SE 3 3 3 3 3 
SE 10 10 10 11 11 
SE 2 2 2 2 2 
SE 10 11 10 10 11 
SE 2 2 2 2 2 
SE 7 7 7 7 7 
SE 2 2 2 2 2 
SE 10 11 10 11 10 
SE 7 7 7 7 7 
SE 2 2 2 2 2 
SE 10 10 10 11 10 
SE 3 3 3 3 3 
SE 2 2 2 2 2 
SE 2 2 2 2 2 
SE 10 11 10 11 10 
SE 2 2 2 2 2 
SE 2 2 2 2 2 
SE 10 10 11 10 11 
SE 3 3 3 3 3 
SE 7 7 7 7 7 
SE 2 2 2 2 2 
SE 7 7 7 7 7 
SE 2 2 2 2 2 
SE 10 10 11 11 10 
SE 2 2 2 2 2 
SE 7 7 7 7 7 
SE 10 10 11 11 10 
SE 2 2 2 2 2 
SE 7 7 7 7 7 
SE 3 3 3 3 3 
SE 10 11 10 10 10 
SE 2 2 2 2 2 
SE 10 10 11 10 10 
SE 2 2 2 2 2 
SE 2 2 2 2 2 
SE 11 10 11 10 10 
SE 2 2 2 2 2 
SE 10 11 10 11 10 
SE 213 223 206 214 219 
SE 3 3 3 3 3 
SE 2 2 2 2 2 
SE 2 2 2 2 2 
SE 3 3 3 3 3 
SE 6 6 6 6 6 
SE 6 6 6 6 6 
SE 3 3 3 3 3 
SE 2 2 2 2 2 
SE 2 2 2 2 2 
SE 3 3 3 3 3 
SE 20 19 20 18 18 
SE 19 19 20 22 19 
SE 2 2 2 2 2 
SE 2 2 2 2 2 
SE 7 7 7 7 7 
SE 7 7 7 7 7 
SE 11 11 11 11 11 
SE 7 7 7 7 7 
SE 2 2 2 2 2 
SE 2 2 2 2 2 
SE 2 2 2 2 2 
SE 8 9 9 9 8 
SE 26 26 28 26 29 
SE 6 6 6 6 6 
SE 3 3 3 3 3 
SE 9 8 8 8 9 
SE 2 2 2 2 2 
SE 8 8 8 8 8 
SE 6 6 6 6 6 
SE 16 15 15 15 16 
SE 8 8 9 8 8 
SE 7 7 7 7 7 
SE 2 2 2 2 2 
SE 2 2 2 2 2 
SE 13 13 13 13 14 
SE 2 2 2 2 2 
SE 2 2 2 2 2 
SE 2 2 2 2 2 
SE 7 7 7 7 7 
SE 29 29 26 29 26 
SE 3 3 3 3 3 
SE 2 2 2 2 2 
SE 7 7 7 7 7 
SE 7 7 7 7 7 
SE 2 2 2 2 2 
SE 2 2 2 2 2 
SE 2 2 2 2 2 
SE 2 2 2 2 2 
SE 2 2 2 2 2 
SE 13 13 14 14 13 
SE 2 2 2 2 2 
SE 2 2 2 2 2 
SE 14 14 13 14 14 
SE 13 13 14 13 13 
SE 2 2 2 2 2 
SE 2 2 2 2 2 
SE 2 2 2 2 2 
SE 52 53 46 46 48 
SE 2 2 2 2 2 
SE 65 62 70 71 66 
SE 57 52 58 58 58 
SE 2 2 2 2 2 
SE 2 2 2 2 2 
SE 2 2 2 2 2 
SE 2 2 2 2 2 
SE 2 2 2 2 2 
SE 6 6 6 6 6 
SE 2 2 2 2 2 
SE 2 2 2 2 2 
SE 6 6 6 6 6 
SE 6 6 6 6 6 
SE 23 23 22 22 23 
SE 2 2 2 2 2 
SE 2 2 2 2 2 
SE 2 2 2 2 2 
SE 2 2 2 2 2 
SE 2 2 2 2 2 
SE 14 14 13 14 13 
SE 2 2 2 2 2 
SE 20 20 23 20 21 
SE 2 2 2 2 2 
SE 13 13 14 14 13 
SE 2 2 2 2 2 
SE 24 21 24 23 24 
SE 2 2 2 2 2 
SE 6 6 6 6 6 
SE 6 6 6 6 6 
SE 2 2 2 2 2 
SE 14 14 13 14 13 
SE 4 4 4 4 4 
SE 3 3 3 3 3 
SE 7 7 7 7 7 
SE 2 2 2 2 2 
SE 2 2 2 2 2 
SE 2 2 2 2 2 
SE 69 60 61 69 66 
SE 3 3 3 3 3 
SE 10 10 11 10 10 
SE 2 2 2 2 2 
SE 60 65 60 62 66 
SE 2 2 2 2 2 
SE 64 60 64 62 61 
SE 10 10 11 11 11 
SE 2 2 2 2 2 
SE 4 4 4 4 4 
SE 4 4 4 4 4 
SE 2 2 2 2 2 
SE 2 2 2 2 2 
SE 2 2 2 2 2 
SE 2 2 2 2 2 
SE 2 2 2 2 2 
SE 26 26 25 25 23 
SE 2 2 2 2 2 
SE 48 52 54 52 53 
SE 2 2 2 2 2 
SE 23 26 24 23 25 
SE 25 24 26 25 23 
SE 54 53 51 55 52 
SE 3 3 3 3 3 
SE 9 10 9 10 9 
SE 62 59 61 60 57 
SE 2 2 2 2 2 
SE 2 2 2 2 2 
SE 2 2 2 2 2 
SE 13 13 13 13 14 
SE 2 2 2 2 2 
SE 2 2 2 2 2 
SE 2 2 2 2 2 
SE 6 6 6 6 6 
SE 2 2 2 2 2 
SE 2 2 2 2 2 
SE 2 2 2 2 2 
SE 2 2 2 2 2 
SE 2 2 2 2 2 
SE 2 2 2 2 2 
SE 2 2 2 2 2 
SE 10 10 10 10 10 
SE 2 2 2 2 2 
SE 2 2 2 2 2 
SE 10 10 10 10 10 
SE 11 10 10 10 10 
SE 2 2 2 2 2 
SE 7 7 7 7 7 
SE 2 2 2 2 2 
SE 7 7 7 7 7 
SE 7 7 7 7 7 
SE 2 2 2 2 2 
SE 2 2 2 2 2 
SE 2 2 2 2 2 
SE 2 2 2 2 2 
SE 13 13 14 13 13 
SE 2 2 2 2 2 
SE 6 6 6 6 6 
SE 6 6 6 6 6 
SE 2 2 2 2 2 
SE 14 13 13 14 14 
SE 2 2 2 2 2 
SE 2 2 2 2 2 
SE 1214 1129 1111 1268 1139 
SE 1193 1278 1256 1193 1185 
SE 1147 1155 1100 1208 1212 
SE 1152 1271 1243 1278 1201 
SE 1226 1158 1288 1222 1210 
SE 1146 1204 1277 1119 1115 
SE 1108 1100 1156 1179 1215 
SE 1258 1198 1167 1194 1179 
SE 1189 1170 1269 1107 1217 
SE 1109 1267 1102 1171 1178 
SE 1282 1146 1234 1290 1212 
SE 1224 1203 1271 1256 1189 
SE 1180 1122 1251 1229 1201 
SE 1122 1216 1202 1215 1267 
SE 1170 1166 1196 1250 1157 
SE 1162 1205 1118 1212 1267 
SE 1167 1205 1218 1153 1246 
SE 1155 1103 1120 1129 1186 
SE 1218 1112 1293 1211 1214 
SE 1186 1131 1115 1167 1130 
SE 1184 1260 1173 1263 1120 
SE 1147 1122 1209 1117 1243 
SE 1213 1221 1186 1244 1159 
SE 1221 1265 1199 1217 1142 
SE 1277 1109 1210 1245 1109 
SE 1171 1122 1184 1121 1120 
SE 1290 1284 1120 1103 1202 
SE 1183 1286 1266 1156 1268 
SE 1219 1288 1189 1178 1168 
SE 1185 1286 1187 1274 1211 
SE 1188 1104 1202 1184 1164 
SE 1133 1116 1150 1146 1207 
SE 1279 1263 1294 1166 1296 
SE 1185 1159 1152 1293 1227 
SE 1135 1237 1244 1274 1258 
SE 1204 1271 1281 1239 1155 
SE 1182 1213 1129 1262 1242 
SE 1143 1237 1300 1152 1122 
SE 1111 1168 1147 1283 1184 
SE 1271 1234 1298 1270 1158 
SE 1102 1154 1252 1174 1150 
SE 1293 1164 1231 1223 1246 
SE 1194 1287 1269 1175 1247 
SE 1182 1176 1152 1102 1251 
SE 1114 1280 1132 1137 1162 
SE 1214 1152 1164 1275 1255 
SE 1244 1281 1120 1164 1168 
SE 1131 1135 1200 1140 1108 
SE 1269 1155 1135 1103 1140 
SE 1112 1243 1113 1276 1232 
SE 1217 1166 1166 1207 1289 
SE 1103 1266 1208 1216 1110 
SE 1109 1215 1222 1243 1174 
SE 1129 1287 1252 1101 1147 
SE 1224 1230 1106 1283 1102 
SE 1286 1174 1282 1137 1183 
SE 1150 1260 1286 1273 1117 
SE 1164 1164 1277 1237 1204 
SE 1118 1159 1248 1193 1100 
SE 1270 1247 1174 1151 1185 
SE 1249 1149 1164 1160 1114 
SE 1157 1113 1149 1228 1165 
SE 1253 1263 1175 1147 1242 
SE 1227 1262 1157 1177 1260 
SE 1242 1172 1201 1220 1292 
SE 1288 1149 1118 1120 1199 
SE 1281 1232 1288 1115 1114 
SE 1123 1236 1180 1181 1233 
SE 1131 1287 1268 1122 1172 
SE 1292 1250 1134 1298 1149 
SE 1294 1119 1178 1100 1241 
SE 1133 1291 1169 1196 1172 
SE 1234 1265 1216 1220 1295 
SE 1138 1105 1297 1126 1137 
SE 1166 1166 1222 1149 1123 
SE 1198 1244 1198 1208 1157 
SE 1252 1107 1110 1100 1292 
SE 1260 1297 1192 1213 1141 
SE 1230 1229 1299 1198 1115 
SE 1171 1163 1145 1255 1282 
SE 1272 1189 1205 1138 1223 
END

SECTION StochasticTerminals
ST 1 0 0 0 1 0 
ST 2 0 0 0 0 0 
ST 3 0 0 0 0 0 
ST 4 0 0 0 0 0 
ST 5 0 0 0 0 0 
ST 6 0 0 0 0 0 
ST 7 0 0 0 0 0 
ST 8 0 0 0 0 0 
ST 9 0 0 0 0 0 
ST 10 0 0 0 0 0 
ST 11 0 0 0 0 0 
ST 12 1 0 0 0 0 
ST 13 0 1 0 0 0 
ST 14 0 0 0 0 0 
ST 15 0 0 0 0 0 
ST 16 0 0 0 0 0 
ST 17 0 0 0 0 0 
ST 18 0 0 0 0 0 
ST 19 1 0 0 0 0 
ST 20 0 0 0 0 0 
ST 21 0 0 0 0 0 
ST 22 0 0 0 0 0 
ST 23 0 0 0 0 0 
ST 24 0 0 0 0 0 
ST 25 0 0 1 0 0 
ST 26 0 0 0 0 0 
ST 27 0 0 0 0 1 
ST 28 0 0 0 0 0 
ST 29 0 0 0 0 0 
ST 30 0 0 0 0 0 
ST 31 1 0 0 0 0 
ST 32 0 0 0 0 0 
ST 33 0 0 0 0 1 
ST 34 0 0 0 0 0 
ST 35 0 0 0 0 0 
ST 36 0 1 0 0 1 
ST 37 0 0 0 0 0 
ST 38 0 0 0 0 0 
ST 39 0 0 0 0 0 
ST 40 0 0 0 0 0 
ST 41 0 0 0 0 0 
ST 42 0 0 0 0 0 
ST 43 0 0 0 0 0 
ST 44 0 0 0 0 0 
ST 45 0 0 0 0 0 
ST 46 0 0 0 0 1 
ST 47 0 0 0 0 0 
ST 48 0 0 0 0 0 
ST 49 1 0 0 0 0 
ST 50 0 0 0 0 0 
ST 51 0 0 0 0 0 
ST 52 0 0 0 0 0 
ST 53 0 0 0 0 0 
ST 54 0 0 0 0 0 
ST 55 0 1 0 0 0 
ST 56 0 0 0 0 0 
ST 57 0 0 0 0 0 
ST 58 0 0 0 0 0 
ST 59 0 0 1 0 0 
ST 60 0 0 0 0 0 
ST 61 0 0 0 0 0 
ST 62 0 0 0 0 0 
ST 63 0 0 0 0 0 
ST 64 0 0 0 0 0 
ST 65 1 0 0 0 0 
ST 66 0 0 1 0 0 
ST 67 0 0 0 0 0 
ST 68 0 0 0 0 0 
ST 69 0 1 0 0 0 
ST 70 0 0 0 0 0 
ST 71 0 0 0 0 0 
ST 72 0 0 0 0 0 
ST 73 0 0 0 0 0 
ST 74 0 0 0 0 0 
ST 75 0 0 0 0 0 
ST 76 0 0 0 0 0 
ST 77 0 0 0 0 0 
ST 78 0 0 0 0 0 
ST 79 0 0 0 0 0 
ST 80 1 0 0 0 0 
ST 81 0 0 0 0 0 
ST 82 0 0 0 0 0 
ST 83 0 0 0 0 1 
ST 84 1 0 0 0 0 
ST 85 0 0 0 0 0 
ST 86 0 0 0 0 0 
ST 87 0 0 0 0 0 
ST 88 1 0 0 0 0 
ST 89 0 0 0 0 0 
ST 90 0 0 0 0 0 
ST 91 1 0 0 0 0 
ST 92 0 0 0 0 0 
ST 93 0 0 0 0 0 
ST 94 0 0 0 0 0 
ST 95 0 0 0 1 0 
ST 96 0 0 0 0 0 
ST 97 0 0 0 0 0 
ST 98 1 0 0 0 0 
ST 99 0 0 0 0 0 
ST 100 0 0 0 0 0 
ST 101 0 0 0 0 0 
ST 102 0 0 0 0 0 
ST 103 0 0 0 0 0 
ST 104 0 0 0 0 0 
ST 105 0 0 0 0 0 
ST 106 0 0 0 0 0 
ST 107 0 0 0 0 0 
ST 108 0 0 0 0 0 
ST 109 0 0 0 0 0 
ST 110 0 0 0 0 0 
ST 111 0 0 0 0 0 
ST 112 0 0 0 0 0 
ST 113 0 0 0 0 0 
ST 114 0 0 0 0 0 
ST 115 0 0 0 0 0 
ST 116 0 0 0 0 0 
ST 117 0 0 0 0 0 
ST 118 0 0 0 0 0 
ST 119 0 0 0 0 0 
ST 120 0 0 0 0 0 
ST 121 0 0 0 0 1 
ST 122 0 0 0 0 0 
ST 123 1 0 0 0 0 
ST 124 0 0 0 0 0 
ST 125 0 0 0 0 1 
ST 126 0 0 0 0 0 
ST 127 0 0 0 0 0 
ST 128 0 0 0 0 0 
ST 129 0 0 1 0 0 
ST 130 0 0 0 0 0 
ST 131 1 0 0 0 0 
ST 132 0 0 0 0 0 
ST 133 0 0 1 0 0 
ST 134 0 0 0 0 0 
ST 135 0 0 0 1 1 
ST 136 0 0 0 0 0 
ST 137 0 0 0 1 0 
ST 138 0 0 0 0 0 
ST 139 0 0 0 0 0 
ST 140 0 0 0 0 0 
ST 141 0 0 0 0 0 
ST 142 0 0 0 0 0 
ST 143 0 0 0 0 0 
ST 144 0 0 1 1 0 
ST 145 0 0 0 0 0 
ST 146 0 0 0 0 0 
ST 147 0 0 0 0 0 
ST 148 1 0 0 0 0 
ST 149 0 0 0 0 0 
ST 150 0 0 0 0 0 
ST 151 0 0 0 0 0 
ST 152 0 0 0 0 0 
ST 153 0 0 0 0 0 
ST 154 0 0 0 0 0 
ST 155 0 0 0 0 0 
ST 156 0 0 0 0 0 
ST 157 0 0 0 0 0 
ST 158 0 0 0 0 0 
ST 159 0 0 0 0 0 
ST 160 0 0 1 0 0 
ST 161 0 0 0 0 0 
ST 162 0 0 0 0 0 
ST 163 0 0 0 0 0 
ST 164 0 0 0 0 0 
ST 165 0 0 0 0 0 
ST 166 0 0 0 0 0 
ST 167 0 0 0 0 0 
ST 168 0 1 0 0 0 
ST 169 0 1 0 0 0 
ST 170 0 0 0 0 0 
ST 171 0 0 0 0 0 
ST 172 0 0 0 0 0 
ST 173 0 0 0 0 0 
ST 174 0 0 0 0 0 
ST 175 0 0 0 0 0 
ST 176 0 0 0 0 0 
ST 177 0 0 0 0 0 
ST 178 0 0 0 0 0 
ST 179 0 0 0 0 0 
ST 180 0 0 0 0 0 
ST 181 0 0 0 0 0 
ST 182 1 0 0 0 0 
ST 183 0 0 0 0 0 
ST 184 0 0 0 0 0 
ST 185 0 0 0 0 0 
ST 186 0 0 0 0 0 
ST 187 0 0 0 0 0 
ST 188 0 0 0 0 0 
ST 189 0 0 0 0 0 
ST 190 0 0 0 0 0 
ST 191 0 0 0 0 0 
ST 192 0 0 0 1 0 
ST 193 0 0 0 0 1 
ST 194 0 0 0 0 0 
ST 195 0 0 0 0 0 
ST 196 0 0 0 0 0 
ST 197 0 0 0 0 0 
ST 198 0 0 0 1 0 
ST 199 0 0 0 0 0 
ST 200 0 0 0 0 0 
ST 201 0 0 0 0 0 
ST 202 0 0 0 0 0 
ST 203 0 0 0 0 0 
ST 204 0 0 0 1 0 
ST 205 0 0 0 0 0 
ST 206 0 0 0 0 0 
ST 207 1 0 0 0 0 
ST 208 0 0 0 0 1 
ST 209 0 0 0 0 0 
ST 210 0 0 0 0 0 
ST 211 0 1 0 0 0 
ST 212 0 1 0 0 0 
ST 213 0 0 0 0 0 
ST 214 0 0 0 0 0 
ST 215 0 0 0 0 0 
ST 216 1 0 0 0 0 
ST 217 1 0 0 0 0 
ST 218 0 0 0 0 0 
ST 219 0 0 0 0 0 
ST 220 0 0 0 0 0 
ST 221 0 0 0 0 0 
ST 222 1 1 0 0 1 
ST 223 0 0 0 0 0 
ST 224 0 0 1 0 0 
ST 225 0 0 0 1 1 
ST 226 1 0 0 1 0 
ST 227 0 0 1 0 1 
ST 228 0 0 0 0 0 
ST 229 0 0 0 0 1 
ST 230 0 0 1 0 0 
ST 231 0 1 1 0 1 
ST 232 1 0 0 1 0 
ST 233 0 0 1 1 0 
ST 234 0 0 0 0 1 
ST 235 0 1 0 1 0 
ST 236 0 0 1 1 1 
ST 237 1 0 0 0 1 
ST 238 0 0 1 1 0 
ST 239 1 0 0 0 0 
ST 240 1 0 1 0 0 
ST 241 1 1 0 0 0 
ST 242 1 1 1 1 1 
ST 243 0 0 0 1 0 
ST 244 0 0 0 0 0 
ST 245 0 0 1 0 1 
ST 246 0 0 1 0 1 
END


SECTION Coordinates
DD 1 14399 14412
DD 2 14412 14412
DD 3 14400 14411
DD 4 14412 14411
DD 5 14400 14410
DD 6 14412 14410
DD 7 14399 14365
DD 8 14399 14367
DD 9 14411 14366
DD 10 14411 14367
DD 11 14381 14412
DD 12 14394 14412
DD 13 14382 14366
DD 14 14382 14367
DD 15 14394 14365
DD 16 14394 14367
DD 17 14381 14411
DD 18 14393 14411
DD 19 14381 14410
DD 20 14393 14410
DD 21 14361 14358
DD 22 14361 14360
DD 23 14376 14360
DD 24 14370 14357
DD 25 14370 14362
DD 26 14345 14360
DD 27 14360 14358
DD 28 14360 14360
DD 29 14351 14357
DD 30 14351 14362
DD 31 14291 14412
DD 32 14304 14412
DD 33 14292 14411
DD 34 14304 14411
DD 35 14292 14410
DD 36 14304 14410
DD 37 14291 14365
DD 38 14291 14367
DD 39 14303 14366
DD 40 14303 14367
DD 41 14273 14412
DD 42 14286 14412
DD 43 14274 14366
DD 44 14274 14367
DD 45 14286 14365
DD 46 14286 14367
DD 47 14273 14411
DD 48 14285 14411
DD 49 14273 14410
DD 50 14285 14410
DD 51 14256 14391
DD 52 14267 14391
DD 53 14262 14390
DD 54 14262 14392
DD 55 14238 14392
DD 56 14249 14392
DD 57 14243 14391
DD 58 14243 14393
DD 59 14217 14404
DD 60 14217 14406
DD 61 14232 14404
DD 62 14232 14406
DD 63 14226 14403
DD 64 14226 14407
DD 65 14201 14404
DD 66 14201 14406
DD 67 14216 14404
DD 68 14216 14406
DD 69 14207 14403
DD 70 14207 14407
DD 71 14181 14404
DD 72 14181 14406
DD 73 14196 14404
DD 74 14196 14406
DD 75 14190 14403
DD 76 14190 14407
DD 77 14180 14404
DD 78 14180 14406
DD 79 14171 14403
DD 80 14171 14407
DD 81 14306 14591
DD 82 14171 14404
DD 83 14171 14406
DD 84 14180 14403
DD 85 14181 14403
DD 86 14180 14407
DD 87 14181 14407
DD 88 14190 14404
DD 89 14190 14406
DD 90 14196 14403
DD 91 14196 14407
DD 92 14201 14403
DD 93 14201 14407
DD 94 14207 14404
DD 95 14207 14406
DD 96 14216 14403
DD 97 14217 14403
DD 98 14216 14407
DD 99 14217 14407
DD 100 14226 14404
DD 101 14238 14393
DD 102 14226 14406
DD 103 14232 14403
DD 104 14243 14392
DD 105 14249 14391
DD 106 14256 14392
DD 107 14243 14406
DD 108 14256 14393
DD 109 14243 14407
DD 110 14285 14366
DD 111 14249 14403
DD 112 14285 14367
DD 113 14286 14366
DD 114 14249 14404
DD 115 14262 14391
DD 116 14249 14406
DD 117 14262 14393
DD 118 14249 14407
DD 119 14267 14390
DD 120 14291 14366
DD 121 14292 14365
DD 122 14292 14366
DD 123 14256 14403
DD 124 14267 14392
DD 125 14292 14367
DD 126 14256 14404
DD 127 14267 14393
DD 128 14256 14406
DD 129 14256 14407
DD 130 14273 14390
DD 131 14273 14391
DD 132 14274 14390
DD 133 14273 14392
DD 134 14274 14391
DD 135 14274 14392
DD 136 14262 14406
DD 137 14303 14365
DD 138 14262 14407
DD 139 14304 14365
DD 140 14304 14366
DD 141 14304 14367
DD 142 14285 14390
DD 143 14285 14391
DD 144 14286 14390
DD 145 14285 14392
DD 146 14286 14391
DD 147 14286 14392
DD 148 14291 14390
DD 149 14291 14391
DD 150 14292 14390
DD 151 14291 14392
DD 152 14292 14391
DD 153 14292 14392
DD 154 14303 14390
DD 155 14303 14391
DD 156 14286 14410
DD 157 14285 14412
DD 158 14286 14411
DD 159 14291 14410
DD 160 14291 14411
DD 161 14292 14412
DD 162 14345 14362
DD 163 14351 14358
DD 164 14345 14365
DD 165 14351 14360
DD 166 14303 14410
DD 167 14303 14411
DD 168 14303 14412
DD 169 14306 14410
DD 170 14351 14365
DD 171 14306 14411
DD 172 14360 14357
DD 173 14306 14412
DD 174 14351 14367
DD 175 14361 14357
DD 176 14360 14362
DD 177 14361 14362
DD 178 14360 14365
DD 179 14360 14366
DD 180 14361 14365
DD 181 14360 14367
DD 182 14361 14366
DD 183 14361 14367
DD 184 14370 14358
DD 185 14370 14360
DD 186 14376 14362
DD 187 14381 14365
DD 188 14381 14366
DD 189 14382 14365
DD 190 14381 14367
DD 191 14393 14365
DD 192 14393 14366
DD 193 14393 14367
DD 194 14394 14366
DD 195 14399 14366
DD 196 14400 14366
DD 197 14400 14367
DD 198 14360 14410
DD 199 14360 14411
DD 200 14361 14410
DD 201 14360 14412
DD 202 14361 14411
DD 203 14361 14412
DD 204 14370 14410
DD 205 14370 14411
DD 206 14370 14412
DD 207 14376 14410
DD 208 14376 14411
DD 209 14376 14412
DD 210 14382 14410
DD 211 14382 14411
DD 212 14382 14412
DD 213 14394 14410
DD 214 14393 14412
DD 215 14394 14411
DD 216 14399 14410
DD 217 14399 14411
DD 218 14400 14412
DD 219 14411 14410
DD 220 14411 14411
DD 221 14411 14412
DD 222 14399 14412
DD 223 14412 14412
DD 224 14400 14411
DD 225 14412 14411
DD 226 14400 14410
DD 227 14412 14410
DD 228 14399 14365
DD 229 14399 14367
DD 230 14411 14366
DD 231 14411 14367
DD 232 14381 14412
DD 233 14394 14412
DD 234 14382 14366
DD 235 14382 14367
DD 236 14394 14365
DD 237 14394 14367
DD 238 14381 14411
DD 239 14393 14411
DD 240 14381 14410
DD 241 14393 14410
DD 242 14361 14358
DD 243 14361 14360
DD 244 14376 14360
DD 245 14370 14357
DD 246 14370 14362
END

EOF
